p cnf 386 460
10 9 -6 21 22 0
10 9 -6 21 -22 0
10 9 -6 -21 23 0
10 9 -6 -21 -23 0
8 19 10 24 25 0
8 19 10 24 -25 0
8 19 10 -24 26 0
8 19 10 -24 -26 0
1 18 13 27 28 0
1 18 13 27 -28 0
1 18 13 -27 29 0
1 18 13 -27 -29 0
-20 18 8 30 31 0
-20 18 8 30 -31 0
-20 18 8 -30 32 0
-20 18 8 -30 -32 0
12 18 15 33 34 0
12 18 15 33 -34 0
12 18 15 -33 35 0
12 18 15 -33 -35 0
19 -14 -5 36 37 0
19 -14 -5 36 -37 0
19 -14 -5 -36 38 0
19 -14 -5 -36 -38 0
-3 -2 -17 39 40 0
-3 -2 -17 39 -40 0
-3 -2 -17 -39 41 0
-3 -2 -17 -39 -41 0
10 -9 18 42 43 0
10 -9 18 42 -43 0
10 -9 18 -42 44 0
10 -9 18 -42 -44 0
-4 -17 3 45 46 0
-4 -17 3 45 -46 0
-4 -17 3 -45 47 0
-4 -17 3 -45 -47 0
-20 -5 -3 48 49 0
-20 -5 -3 48 -49 0
-20 -5 -3 -48 50 0
-20 -5 -3 -48 -50 0
17 -13 -4 51 52 0
17 -13 -4 51 -52 0
17 -13 -4 -51 53 0
17 -13 -4 -51 -53 0
14 -1 19 54 55 0
14 -1 19 54 -55 0
14 -1 19 -54 56 0
14 -1 19 -54 -56 0
7 3 -18 57 58 0
7 3 -18 57 -58 0
7 3 -18 -57 59 0
7 3 -18 -57 -59 0
-9 -8 12 60 61 0
-9 -8 12 60 -61 0
-9 -8 12 -60 62 0
-9 -8 12 -60 -62 0
-17 -19 10 63 64 0
-17 -19 10 63 -64 0
-17 -19 10 -63 65 0
-17 -19 10 -63 -65 0
-10 -11 -17 66 67 0
-10 -11 -17 66 -67 0
-10 -11 -17 -66 68 0
-10 -11 -17 -66 -68 0
10 -5 15 69 70 0
10 -5 15 69 -70 0
10 -5 15 -69 71 0
10 -5 15 -69 -71 0
-17 2 -10 72 73 0
-17 2 -10 72 -73 0
-17 2 -10 -72 74 0
-17 2 -10 -72 -74 0
-9 14 -1 75 76 0
-9 14 -1 75 -76 0
-9 14 -1 -75 77 0
-9 14 -1 -75 -77 0
-4 -1 -19 78 79 0
-4 -1 -19 78 -79 0
-4 -1 -19 -78 80 0
-4 -1 -19 -78 -80 0
-17 9 -3 81 82 0
-17 9 -3 81 -82 0
-17 9 -3 -81 83 0
-17 9 -3 -81 -83 0
8 -11 -19 84 85 0
8 -11 -19 84 -85 0
8 -11 -19 -84 86 0
8 -11 -19 -84 -86 0
-9 14 -15 87 88 0
-9 14 -15 87 -88 0
-9 14 -15 -87 89 0
-9 14 -15 -87 -89 0
-11 -16 -12 90 91 0
-11 -16 -12 90 -91 0
-11 -16 -12 -90 92 0
-11 -16 -12 -90 -92 0
11 -19 -17 93 94 0
11 -19 -17 93 -94 0
11 -19 -17 -93 95 0
11 -19 -17 -93 -95 0
2 9 5 96 97 0
2 9 5 96 -97 0
2 9 5 -96 98 0
2 9 5 -96 -98 0
-18 -9 -17 99 100 0
-18 -9 -17 99 -100 0
-18 -9 -17 -99 101 0
-18 -9 -17 -99 -101 0
9 -19 -8 102 103 0
9 -19 -8 102 -103 0
9 -19 -8 -102 104 0
9 -19 -8 -102 -104 0
-2 -6 10 105 106 0
-2 -6 10 105 -106 0
-2 -6 10 -105 107 0
-2 -6 10 -105 -107 0
10 -8 -2 108 109 0
10 -8 -2 108 -109 0
10 -8 -2 -108 110 0
10 -8 -2 -108 -110 0
2 19 -6 111 112 0
2 19 -6 111 -112 0
2 19 -6 -111 113 0
2 19 -6 -111 -113 0
-20 12 8 114 115 0
-20 12 8 114 -115 0
-20 12 8 -114 116 0
-20 12 8 -114 -116 0
4 -1 9 117 118 0
4 -1 9 117 -118 0
4 -1 9 -117 119 0
4 -1 9 -117 -119 0
9 -2 -14 120 121 0
9 -2 -14 120 -121 0
9 -2 -14 -120 122 0
9 -2 -14 -120 -122 0
-11 7 -20 123 124 0
-11 7 -20 123 -124 0
-11 7 -20 -123 125 0
-11 7 -20 -123 -125 0
17 3 -14 126 127 0
17 3 -14 126 -127 0
17 3 -14 -126 128 0
17 3 -14 -126 -128 0
15 -5 -9 129 130 0
15 -5 -9 129 -130 0
15 -5 -9 -129 131 0
15 -5 -9 -129 -131 0
-4 12 -13 132 133 0
-4 12 -13 132 -133 0
-4 12 -13 -132 134 0
-4 12 -13 -132 -134 0
19 9 10 135 136 0
19 9 10 135 -136 0
19 9 10 -135 137 0
19 9 10 -135 -137 0
11 -13 -6 138 139 0
11 -13 -6 138 -139 0
11 -13 -6 -138 140 0
11 -13 -6 -138 -140 0
4 20 12 141 142 0
4 20 12 141 -142 0
4 20 12 -141 143 0
4 20 12 -141 -143 0
20 9 18 144 145 0
20 9 18 144 -145 0
20 9 18 -144 146 0
20 9 18 -144 -146 0
-6 12 20 147 148 0
-6 12 20 147 -148 0
-6 12 20 -147 149 0
-6 12 20 -147 -149 0
14 1 15 150 151 0
14 1 15 150 -151 0
14 1 15 -150 152 0
14 1 15 -150 -152 0
-9 -12 -15 153 154 0
-9 -12 -15 153 -154 0
-9 -12 -15 -153 155 0
-9 -12 -15 -153 -155 0
12 1 -11 156 157 0
12 1 -11 156 -157 0
12 1 -11 -156 158 0
12 1 -11 -156 -158 0
12 6 -3 159 160 0
12 6 -3 159 -160 0
12 6 -3 -159 161 0
12 6 -3 -159 -161 0
-18 13 3 162 163 0
-18 13 3 162 -163 0
-18 13 3 -162 164 0
-18 13 3 -162 -164 0
4 6 -19 165 166 0
4 6 -19 165 -166 0
4 6 -19 -165 167 0
4 6 -19 -165 -167 0
-14 18 -8 168 169 0
-14 18 -8 168 -169 0
-14 18 -8 -168 170 0
-14 18 -8 -168 -170 0
16 15 -2 171 172 0
16 15 -2 171 -172 0
16 15 -2 -171 173 0
16 15 -2 -171 -173 0
-8 12 -2 174 175 0
-8 12 -2 174 -175 0
-8 12 -2 -174 176 0
-8 12 -2 -174 -176 0
-8 5 -16 177 178 0
-8 5 -16 177 -178 0
-8 5 -16 -177 179 0
-8 5 -16 -177 -179 0
1 15 -18 180 181 0
1 15 -18 180 -181 0
1 15 -18 -180 182 0
1 15 -18 -180 -182 0
20 -19 -11 183 184 0
20 -19 -11 183 -184 0
20 -19 -11 -183 185 0
20 -19 -11 -183 -185 0
-6 -10 8 186 187 0
-6 -10 8 186 -187 0
-6 -10 8 -186 188 0
-6 -10 8 -186 -188 0
-18 -11 2 189 190 0
-18 -11 2 189 -190 0
-18 -11 2 -189 191 0
-18 -11 2 -189 -191 0
-1 18 -17 192 193 0
-1 18 -17 192 -193 0
-1 18 -17 -192 194 0
-1 18 -17 -192 -194 0
19 2 13 195 196 0
19 2 13 195 -196 0
19 2 13 -195 197 0
19 2 13 -195 -197 0
-5 -2 -20 198 199 0
-5 -2 -20 198 -199 0
-5 -2 -20 -198 200 0
-5 -2 -20 -198 -200 0
-18 5 6 201 202 0
-18 5 6 201 -202 0
-18 5 6 -201 203 0
-18 5 6 -201 -203 0
13 15 8 204 205 0
13 15 8 204 -205 0
13 15 8 -204 206 0
13 15 8 -204 -206 0
6 -5 -4 207 208 0
6 -5 -4 207 -208 0
6 -5 -4 -207 209 0
6 -5 -4 -207 -209 0
3 -14 12 210 211 0
3 -14 12 210 -211 0
3 -14 12 -210 212 0
3 -14 12 -210 -212 0
11 -18 -1 213 214 0
11 -18 -1 213 -214 0
11 -18 -1 -213 215 0
11 -18 -1 -213 -215 0
1 -19 20 216 217 0
1 -19 20 216 -217 0
1 -19 20 -216 218 0
1 -19 20 -216 -218 0
-11 -7 18 219 220 0
-11 -7 18 219 -220 0
-11 -7 18 -219 221 0
-11 -7 18 -219 -221 0
6 18 9 222 223 0
6 18 9 222 -223 0
6 18 9 -222 224 0
6 18 9 -222 -224 0
-9 -4 14 225 226 0
-9 -4 14 225 -226 0
-9 -4 14 -225 227 0
-9 -4 14 -225 -227 0
1 7 -2 228 229 0
1 7 -2 228 -229 0
1 7 -2 -228 230 0
1 7 -2 -228 -230 0
4 -19 -17 231 232 0
4 -19 -17 231 -232 0
4 -19 -17 -231 233 0
4 -19 -17 -231 -233 0
-20 -19 18 234 235 0
-20 -19 18 234 -235 0
-20 -19 18 -234 236 0
-20 -19 18 -234 -236 0
-2 8 -11 237 238 0
-2 8 -11 237 -238 0
-2 8 -11 -237 239 0
-2 8 -11 -237 -239 0
-19 13 -4 240 241 0
-19 13 -4 240 -241 0
-19 13 -4 -240 242 0
-19 13 -4 -240 -242 0
20 4 1 243 244 0
20 4 1 243 -244 0
20 4 1 -243 245 0
20 4 1 -243 -245 0
-18 -11 -20 246 247 0
-18 -11 -20 246 -247 0
-18 -11 -20 -246 248 0
-18 -11 -20 -246 -248 0
-15 -19 -10 249 250 0
-15 -19 -10 249 -250 0
-15 -19 -10 -249 251 0
-15 -19 -10 -249 -251 0
14 17 -8 252 253 0
14 17 -8 252 -253 0
14 17 -8 -252 254 0
14 17 -8 -252 -254 0
-15 7 -9 255 256 0
-15 7 -9 255 -256 0
-15 7 -9 -255 257 0
-15 7 -9 -255 -257 0
-12 5 15 258 259 0
-12 5 15 258 -259 0
-12 5 15 -258 260 0
-12 5 15 -258 -260 0
-12 -3 -13 261 262 0
-12 -3 -13 261 -262 0
-12 -3 -13 -261 263 0
-12 -3 -13 -261 -263 0
-2 12 11 264 265 0
-2 12 11 264 -265 0
-2 12 11 -264 266 0
-2 12 11 -264 -266 0
-11 -16 3 267 268 0
-11 -16 3 267 -268 0
-11 -16 3 -267 269 0
-11 -16 3 -267 -269 0
-14 17 -3 270 271 0
-14 17 -3 270 -271 0
-14 17 -3 -270 272 0
-14 17 -3 -270 -272 0
-4 -6 8 273 274 0
-4 -6 8 273 -274 0
-4 -6 8 -273 275 0
-4 -6 8 -273 -275 0
-7 -14 -2 276 277 0
-7 -14 -2 276 -277 0
-7 -14 -2 -276 278 0
-7 -14 -2 -276 -278 0
-19 2 4 279 280 0
-19 2 4 279 -280 0
-19 2 4 -279 281 0
-19 2 4 -279 -281 0
-1 -20 11 282 283 0
-1 -20 11 282 -283 0
-1 -20 11 -282 284 0
-1 -20 11 -282 -284 0
-12 13 -18 285 286 0
-12 13 -18 285 -286 0
-12 13 -18 -285 287 0
-12 13 -18 -285 -287 0
8 -4 16 288 289 0
8 -4 16 288 -289 0
8 -4 16 -288 290 0
8 -4 16 -288 -290 0
-9 6 19 291 292 0
-9 6 19 291 -292 0
-9 6 19 -291 293 0
-9 6 19 -291 -293 0
294 295 297 301 309 0
294 295 297 301 -309 0
294 295 297 -301 310 0
294 295 297 -301 -310 0
294 295 -297 302 311 0
294 295 -297 302 -311 0
294 295 -297 -302 312 0
294 295 -297 -302 -312 0
294 -295 298 303 313 0
294 -295 298 303 -313 0
294 -295 298 -303 314 0
294 -295 298 -303 -314 0
294 -295 -298 304 315 0
294 -295 -298 304 -315 0
294 -295 -298 -304 316 0
294 -295 -298 -304 -316 0
-294 296 299 305 317 0
-294 296 299 305 -317 0
-294 296 299 -305 318 0
-294 296 299 -305 -318 0
-294 296 -299 306 319 0
-294 296 -299 306 -319 0
-294 296 -299 -306 320 0
-294 296 -299 -306 -320 0
-294 -296 300 307 321 0
-294 -296 300 307 -321 0
-294 -296 300 -307 322 0
-294 -296 300 -307 -322 0
-294 -296 -300 308 323 0
-294 -296 -300 308 -323 0
-294 -296 -300 -308 324 0
-294 -296 -300 -308 -324 0
325 326 328 332 340 0
325 326 328 332 -340 0
325 326 328 -332 341 0
325 326 328 -332 -341 0
325 326 -328 333 342 0
325 326 -328 333 -342 0
325 326 -328 -333 343 0
325 326 -328 -333 -343 0
325 -326 329 334 344 0
325 -326 329 334 -344 0
325 -326 329 -334 345 0
325 -326 329 -334 -345 0
325 -326 -329 335 346 0
325 -326 -329 335 -346 0
325 -326 -329 -335 347 0
325 -326 -329 -335 -347 0
-325 327 330 336 348 0
-325 327 330 336 -348 0
-325 327 330 -336 349 0
-325 327 330 -336 -349 0
-325 327 -330 337 350 0
-325 327 -330 337 -350 0
-325 327 -330 -337 351 0
-325 327 -330 -337 -351 0
-325 -327 331 338 352 0
-325 -327 331 338 -352 0
-325 -327 331 -338 353 0
-325 -327 331 -338 -353 0
-325 -327 -331 339 354 0
-325 -327 -331 339 -354 0
-325 -327 -331 -339 355 0
-325 -327 -331 -339 -355 0
356 357 359 363 371 0
356 357 359 363 -371 0
356 357 359 -363 372 0
356 357 359 -363 -372 0
356 357 -359 364 373 0
356 357 -359 364 -373 0
356 357 -359 -364 374 0
356 357 -359 -364 -374 0
356 -357 360 365 375 0
356 -357 360 365 -375 0
356 -357 360 -365 376 0
356 -357 360 -365 -376 0
356 -357 -360 366 377 0
356 -357 -360 366 -377 0
356 -357 -360 -366 378 0
356 -357 -360 -366 -378 0
-356 358 361 367 379 0
-356 358 361 367 -379 0
-356 358 361 -367 380 0
-356 358 361 -367 -380 0
-356 358 -361 368 381 0
-356 358 -361 368 -381 0
-356 358 -361 -368 382 0
-356 358 -361 -368 -382 0
-356 -358 362 369 383 0
-356 -358 362 369 -383 0
-356 -358 362 -369 384 0
-356 -358 362 -369 -384 0
-356 -358 -362 370 385 0
-356 -358 -362 370 -385 0
-356 -358 -362 -370 386 0
-356 -358 -362 -370 -386 0

